p cnf 12 28
-12 11 -4 0
-12 11 2 0
-12 9 6 0
12 8 -5 0
12 6 -3 0
-12 -5 1 0
12 -4 -1 0
12 2 1 0
-12 2 1 0
11 10 5 0
11 9 8 0
11 -9 -6 0
-11 9 -3 0
-11 -8 -4 0
11 8 2 0
-11 -6 -5 0
10 -7 1 0
10 -6 -3 0
-10 -6 -1 0
-10 3 -1 0
-9 7 4 0
9 -3 1 0
8 -5 -4 0
-8 5 1 0
-7 -6 5 0
7 5 -2 0
7 3 -2 0
6 5 4 0
